&CONTROL
   calculation      = 'scf'
   tstress          = .true.
   tprnfor          = .true.
/
&SYSTEM
   occupations      = 'smearing'
   degauss          = 0.02
   ntyp             = 1
   nat              = 4
   ibrav            = 0
/
&ELECTRONS
/
&IONS
/
&CELL
/

ATOMIC_SPECIES
Al 26.9815385 Al.pbe-n-kjpaw_psl.1.0.0.UPF

K_POINTS automatic
3 3 3  0 0 0

CELL_PARAMETERS angstrom
4.04521894185266 0.00000000000000 0.00000000000000
0.00000000000000 4.04521894185266 0.00000000000000
0.00000000000000 0.00000000000000 4.04521894185266

ATOMIC_POSITIONS angstrom
Al 0.0000000000 0.0000000000 0.0000000000 
Al 0.0000000000 2.0226094709 2.0226094709 
Al 2.0226094709 0.0000000000 2.0226094709 
Al 2.0226094709 2.0226094709 0.0000000000 

