&CONTROL
   calculation      = 'scf'
   tstress          = .true.
   tprnfor          = .true.
/
&SYSTEM
   occupations      = 'smearing'
   degauss          = 0.02
   ntyp             = 1
   nat              = 4
   ibrav            = 0
/
&ELECTRONS
/
&IONS
/
&CELL
/

ATOMIC_SPECIES
Al 26.9815385 Al.pbe-n-kjpaw_psl.1.0.0.UPF

K_POINTS automatic
3 3 3  0 0 0

CELL_PARAMETERS angstrom
3.90561594676436 0.00000000000000 0.00000000000000
0.00000000000000 3.90561594676436 0.00000000000000
0.00000000000000 0.00000000000000 3.90561594676436

ATOMIC_POSITIONS angstrom
Al 0.0000000000 0.0000000000 0.0000000000 
Al 0.0000000000 1.9528079734 1.9528079734 
Al 1.9528079734 0.0000000000 1.9528079734 
Al 1.9528079734 1.9528079734 0.0000000000 

